1652.0 21960.0 
1771.0 21667.0 
1646.0 22014.0 
1621.0 22043.0 
1652.0 21960.0 
1673.0 21717.0 
1780.0 21584.0 
1646.0 22014.0 
1657.0 21946.0 
1661.0 21850.0 
1763.0 21680.0 
1780.0 21584.0 
1751.0 21682.0 
